
Gurobi 9.5.2 (mac64[arm]) logging started Thu Nov 10 23:23:47 2022

Set parameter LogFile to value "./ccga_results/2022-11-10 23-23-44-574/FMP_[2022-11-10 23:23:47.896]_gurobi_log.txt"

Gurobi 9.5.2 (mac64[arm]) logging started Thu Nov 10 23:23:47 2022

Set parameter LogFile to value "./ccga_results/2022-11-10 23-23-44-574/FMP_[2022-11-10 23:23:47.896]_gurobi_log.txt"
Set parameter TimeLimit to value 180
Gurobi Optimizer version 9.5.2 build v9.5.2rc0 (mac64[arm])
Thread count: 8 physical cores, 8 logical processors, using up to 8 threads
Optimize a model with 3268 rows, 1323 columns and 11126 nonzeros
Model fingerprint: 0xfcf1ff93
Variable types: 1275 continuous, 48 integer (48 binary)
Coefficient statistics:
  Matrix range     [3e-02, 1e+08]
  Objective range  [1e+00, 1e+00]
  Bounds range     [1e+00, 1e+00]
  RHS range        [1e+00, 1e+08]
Presolve removed 987 rows and 334 columns
Presolve time: 0.01s
Presolved: 2281 rows, 989 columns, 7787 nonzeros
Variable types: 965 continuous, 24 integer (24 binary)
Found heuristic solution: objective -0.0000000

Root relaxation: objective 6.914486e+02, 2790 iterations, 0.06 seconds (0.12 work units)

    Nodes    |    Current Node    |     Objective Bounds      |     Work
 Expl Unexpl |  Obj  Depth IntInf | Incumbent    BestBd   Gap | It/Node Time

     0     0  691.44863    0   24   -0.00000  691.44863      -     -    0s
H    0     0                       4.9281637  691.44863      -     -    0s
     0     0  441.01799    0   24    4.92816  441.01799  8849%     -    0s
     0     0  426.87308    0   24    4.92816  426.87308  8562%     -    0s
     0     0  414.89451    0   24    4.92816  414.89451  8319%     -    0s
     0     0  414.89451    0   24    4.92816  414.89451  8319%     -    0s
     0     0  284.26266    0   24    4.92816  284.26266  5668%     -    0s
     0     0  268.12650    0   24    4.92816  268.12650  5341%     -    0s
     0     0  257.86202    0   24    4.92816  257.86202  5132%     -    0s
     0     0  251.76872    0   24    4.92816  251.76872  5009%     -    0s
     0     0  250.34966    0   24    4.92816  250.34966  4980%     -    0s
     0     0  250.30476    0   24    4.92816  250.30476  4979%     -    0s
     0     0  250.24151    0   24    4.92816  250.24151  4978%     -    0s
     0     0  214.95163    0   24    4.92816  214.95163  4262%     -    0s
H    0     0                     102.9286470  214.95163   109%     -    0s
     0     0  206.75423    0   24  102.92865  206.75423   101%     -    0s
     0     0  204.08615    0   24  102.92865  204.08615  98.3%     -    0s
     0     0  203.78234    0   24  102.92865  203.78234  98.0%     -    0s
     0     0  203.78225    0   24  102.92865  203.78225  98.0%     -    0s
     0     0  188.93456    0   24  102.92865  188.93456  83.6%     -    0s
     0     0  186.19393    0   24  102.92865  186.19393  80.9%     -    0s
     0     0  185.91889    0   24  102.92865  185.91889  80.6%     -    0s
     0     0  185.72951    0   24  102.92865  185.72951  80.4%     -    0s
     0     0  185.50050    0   24  102.92865  185.50050  80.2%     -    0s
     0     0  185.47496    0   24  102.92865  185.47496  80.2%     -    0s
     0     0  178.19502    0   24  102.92865  178.19502  73.1%     -    0s
     0     2  178.19502    0   24  102.92865  178.19502  73.1%     -    0s

Cutting planes:
  Gomory: 2
  MIR: 17
  Flow cover: 8
  RLT: 138

Explored 99 nodes (9736 simplex iterations) in 1.03 seconds (1.61 work units)
Thread count was 8 (of 8 available processors)

Solution count 3: 102.929 4.92816 -0 

Optimal solution found (tolerance 1.00e-03)
Best objective 1.029286469692e+02, best bound 1.029286469692e+02, gap 0.0000%

User-callback calls 1221, time in user-callback 0.00 sec
